NAME : in_house_8_16
TYPE : TSP
DIMENSION : 8
EDGE_WEIGHT_TYPE : EXPLICIT
EDGE_WEIGHT_FORMAT : UPPER_ROW
COMMENT : INVERSION_SHIFT=7
EDGE_WEIGHT_SECTION
14
8
14
23
2
33
60
52
4
5
59
31
24
37
27
53
51
54
60
1
61
5
22
9
63
29
28
18
